(set-info :smt-lib-version 2.6)
(set-info :category "crafted")
(set-logic QF_FFA)
(define-sort FF0 () (_ FiniteField 52435875175126190479447740508185965837690552500527637822603658699938581184513))
(declare-fun return_n18_alt () FF0)
(declare-fun x16_n3_alt () FF0)
(declare-fun x14_n6_alt () FF0)
(declare-fun x13_n9_alt () FF0)
(declare-fun x11_n12_alt () FF0)
(declare-fun x15_n15_alt () FF0)
(declare-fun x8_n1_alt () FF0)
(declare-fun x10_n4_alt () FF0)
(declare-fun x3_n7_alt () FF0)
(declare-fun x5_n10_alt () FF0)
(declare-fun x1_n13_alt () FF0)
(declare-fun x19_n16_alt () FF0)
(declare-fun x18_n19_alt () FF0)
(declare-fun x4_n2_alt () FF0)
(declare-fun x0_n5_alt () FF0)
(declare-fun x9_n8_alt () FF0)
(declare-fun x17_n11_alt () FF0)
(declare-fun x7_n14_alt () FF0)
(declare-fun x6_n17_alt () FF0)
(declare-fun x2_n20_alt () FF0)
(declare-fun x12_n0_alt () FF0)
(declare-fun is_zero_inv_n21_alt () FF0)
(declare-fun return_n18 () FF0)
(declare-fun x16_n3 () FF0)
(declare-fun x14_n6 () FF0)
(declare-fun x13_n9 () FF0)
(declare-fun x11_n12 () FF0)
(declare-fun x15_n15 () FF0)
(declare-fun x8_n1 () FF0)
(declare-fun x10_n4 () FF0)
(declare-fun x3_n7 () FF0)
(declare-fun x5_n10 () FF0)
(declare-fun x1_n13 () FF0)
(declare-fun x19_n16 () FF0)
(declare-fun x18_n19 () FF0)
(declare-fun x4_n2 () FF0)
(declare-fun x0_n5 () FF0)
(declare-fun x9_n8 () FF0)
(declare-fun x17_n11 () FF0)
(declare-fun x7_n14 () FF0)
(declare-fun x6_n17 () FF0)
(declare-fun x2_n20 () FF0)
(declare-fun x12_n0 () FF0)
(declare-fun is_zero_inv_n21 () FF0)
(assert 
  (let ((let0 (as ff1 FF0)))
  (let ((let1 (as ff52435875175126190479447740508185965837690552500527637822603658699938581184512 FF0)))
  (let ((let2 return_n18_alt))
  (let ((let3 (ff.mul let2 let1)))
  (let ((let4 (ff.add let3 let0)))
  (let ((let5 (as ff20 FF0)))
  (let ((let6 x16_n3_alt))
  (let ((let7 (ff.mul let6 let1)))
  (let ((let8 x14_n6_alt))
  (let ((let9 (ff.mul let8 let1)))
  (let ((let10 x13_n9_alt))
  (let ((let11 (ff.mul let10 let1)))
  (let ((let12 x11_n12_alt))
  (let ((let13 (ff.mul let12 let1)))
  (let ((let14 x15_n15_alt))
  (let ((let15 (ff.mul let14 let1)))
  (let ((let16 x8_n1_alt))
  (let ((let17 (ff.mul let16 let1)))
  (let ((let18 x10_n4_alt))
  (let ((let19 (ff.mul let18 let1)))
  (let ((let20 x3_n7_alt))
  (let ((let21 (ff.mul let20 let1)))
  (let ((let22 x5_n10_alt))
  (let ((let23 (ff.mul let22 let1)))
  (let ((let24 x1_n13_alt))
  (let ((let25 (ff.mul let24 let1)))
  (let ((let26 x19_n16_alt))
  (let ((let27 (ff.mul let26 let1)))
  (let ((let28 x18_n19_alt))
  (let ((let29 (ff.mul let28 let1)))
  (let ((let30 x4_n2_alt))
  (let ((let31 (ff.mul let30 let1)))
  (let ((let32 x0_n5_alt))
  (let ((let33 (ff.mul let32 let1)))
  (let ((let34 x9_n8_alt))
  (let ((let35 (ff.mul let34 let1)))
  (let ((let36 x17_n11_alt))
  (let ((let37 (ff.mul let36 let1)))
  (let ((let38 x7_n14_alt))
  (let ((let39 (ff.mul let38 let1)))
  (let ((let40 x6_n17_alt))
  (let ((let41 (ff.mul let40 let1)))
  (let ((let42 x2_n20_alt))
  (let ((let43 (ff.mul let42 let1)))
  (let ((let44 x12_n0_alt))
  (let ((let45 (ff.mul let44 let1)))
  (let ((let46 (ff.add let45 let43 let41 let39 let37 let35 let33 let31 let29 let27 let25 let23 let21 let19 let17 let15 let13 let11 let9 let7 let5)))
  (let ((let47 is_zero_inv_n21_alt))
  (let ((let48 (ff.mul let47 let46)))
  (let ((let49 (= let48 let4)))
  (let ((let50 return_n18))
  (let ((let51 (ff.mul let50 let1)))
  (let ((let52 (ff.add let51 let0)))
  (let ((let53 x16_n3))
  (let ((let54 (ff.mul let53 let1)))
  (let ((let55 x14_n6))
  (let ((let56 (ff.mul let55 let1)))
  (let ((let57 x13_n9))
  (let ((let58 (ff.mul let57 let1)))
  (let ((let59 x11_n12))
  (let ((let60 (ff.mul let59 let1)))
  (let ((let61 x15_n15))
  (let ((let62 (ff.mul let61 let1)))
  (let ((let63 x8_n1))
  (let ((let64 (ff.mul let63 let1)))
  (let ((let65 x10_n4))
  (let ((let66 (ff.mul let65 let1)))
  (let ((let67 x3_n7))
  (let ((let68 (ff.mul let67 let1)))
  (let ((let69 x5_n10))
  (let ((let70 (ff.mul let69 let1)))
  (let ((let71 x1_n13))
  (let ((let72 (ff.mul let71 let1)))
  (let ((let73 x19_n16))
  (let ((let74 (ff.mul let73 let1)))
  (let ((let75 x18_n19))
  (let ((let76 (ff.mul let75 let1)))
  (let ((let77 x4_n2))
  (let ((let78 (ff.mul let77 let1)))
  (let ((let79 x0_n5))
  (let ((let80 (ff.mul let79 let1)))
  (let ((let81 x9_n8))
  (let ((let82 (ff.mul let81 let1)))
  (let ((let83 x17_n11))
  (let ((let84 (ff.mul let83 let1)))
  (let ((let85 x7_n14))
  (let ((let86 (ff.mul let85 let1)))
  (let ((let87 x6_n17))
  (let ((let88 (ff.mul let87 let1)))
  (let ((let89 x2_n20))
  (let ((let90 (ff.mul let89 let1)))
  (let ((let91 x12_n0))
  (let ((let92 (ff.mul let91 let1)))
  (let ((let93 (ff.add let92 let90 let88 let86 let84 let82 let80 let78 let76 let74 let72 let70 let68 let66 let64 let62 let60 let58 let56 let54 let5)))
  (let ((let94 is_zero_inv_n21))
  (let ((let95 (ff.mul let94 let93)))
  (let ((let96 (= let95 let52)))
  (let ((let97 (= let50 let2)))
  (let ((let98 (not let97)))
  (let ((let99 (= let87 let40)))
  (let ((let100 (= let61 let14)))
  (let ((let101 (= let89 let42)))
  (let ((let102 (= let63 let16)))
  (let ((let103 (= let77 let30)))
  (let ((let104 (= let75 let28)))
  (let ((let105 (= let55 let8)))
  (let ((let106 (= let59 let12)))
  (let ((let107 (= let71 let24)))
  (let ((let108 (= let57 let10)))
  (let ((let109 (= let65 let18)))
  (let ((let110 (= let69 let22)))
  (let ((let111 (= let73 let26)))
  (let ((let112 (= let91 let44)))
  (let ((let113 (= let67 let20)))
  (let ((let114 (= let79 let32)))
  (let ((let115 (= let53 let6)))
  (let ((let116 (= let81 let34)))
  (let ((let117 (= let85 let38)))
  (let ((let118 (= let83 let36)))
  (let ((let119 (and let118 let117 let116 let115 let114 let113 let112 let111 let110 let109 let108 let107 let106 let105 let104 let103 let102 let101 let100 let99)))
  (let ((let120 (and let119 let98 let96 let49)))
  let120
)))))))))))))))))))))))))))))))))))))))))))))))))))))))))))))))))))))))))))))))))))))))))))))))))))))))))))))))))))))))))
)
(check-sat)
